(set-logic QF_S)
(declare-fun var0 () String)
(assert (str.in.re var0 (re.++ (re.+ (re.union (str.to.re "000") (str.to.re "11"))) (re.++ (re.+ (re.* (str.to.re "2"))) (re.++ (re.* (re.union (str.to.re "333") (str.to.re "4"))) (re.++ (re.+ (re.* (str.to.re "55"))) (re.++ (re.union (re.* (str.to.re "6")) (re.* (str.to.re "7"))) (re.++ (re.* (re.+ (str.to.re "8"))) (re.++ (re.+ (re.union (str.to.re "999") (str.to.re "aaa"))) (re.++ (re.+ (re.* (str.to.re "bb"))) (re.++ (re.+ (re.union (str.to.re "ccc") (str.to.re "d"))) (re.union (re.+ (str.to.re "eee")) (re.+ (str.to.re "f"))))))))))))))
(assert (<= 101 (str.len var0)))
(check-sat)